; benchmark generated from python API
(set-info :status unknown)
(declare-fun x_day () Int)
(declare-fun x_month () Int)
(declare-fun x_year () Int)
(declare-fun x_epoch () Int)
(declare-fun p_days () Int)
(declare-fun q_days () Int)
(declare-fun x_plus_period_896474_day () Int)
(declare-fun x_plus_period_896474_month () Int)
(declare-fun x_plus_period_896474_year () Int)
(declare-fun x_plus_period_896474_epoch () Int)
(declare-fun x_plus_period_896474_plus_period_898416_day () Int)
(declare-fun x_plus_period_896474_plus_period_898416_month () Int)
(declare-fun x_plus_period_896474_plus_period_898416_year () Int)
(declare-fun x_plus_period_896474_plus_period_898416_epoch () Int)
(assert
 (let (($x568 (> x_month 2)))
 (let (($x672 (= (mod x_year 4) 0)))
 (let (($x356 (= (mod x_year 100) 0)))
 (let (($x938 (= (mod x_year 400) 0)))
 (let (($x1010 (ite $x938 true (ite $x356 false $x672))))
 (let (($x652 (= x_month 9)))
 (let ((?x567 (ite $x652 243 (ite (= x_month 10) 273 (ite (= x_month 11) 304 334)))))
 (let (($x395 (= x_month 6)))
 (let ((?x112 (ite $x395 151 (ite (= x_month 7) 181 (ite (= x_month 8) 212 ?x567)))))
 (let (($x788 (= x_month 4)))
 (let (($x231 (= x_month 3)))
 (let (($x620 (= x_month 2)))
 (let ((?x315 (ite $x620 31 (ite $x231 59 (ite $x788 90 (ite (= x_month 5) 120 ?x112))))))
 (let (($x503 (= x_month 1)))
 (let ((?x943 (ite $x503 0 ?x315)))
 (let ((?x1268 (- (+ (* 365 (- x_year 1)) (div (- x_year 1) 4)) (div (- x_year 1) 100))))
 (let ((?x328 (+ (+ ?x1268 (div (- x_year 1) 400)) (+ ?x943 (ite (and $x1010 $x568) 1 0)))))
 (let (($x182 (<= x_year 2400)))
 (let (($x1406 (>= x_year 1600)))
 (let ((?x564 (ite (or $x788 $x395 $x652 (= x_month 11)) 30 31)))
 (let ((?x889 (ite $x620 (ite $x1010 29 28) ?x564)))
 (let (($x1426 (>= x_day 1)))
 (let (($x150 (<= x_month 12)))
 (let (($x1627 (>= x_month 1)))
 (and $x1627 $x150 $x1426 (<= x_day ?x889) $x1406 $x182 (= x_epoch (+ ?x328 (- x_day 1)))))))))))))))))))))))))))))
(assert
 (let (($x3948 (= x_day 15)))
 (let (($x503 (= x_month 1)))
 (let (($x2491 (= x_year 2022)))
 (and $x2491 $x503 $x3948)))))
(assert
 (= p_days 390))
(assert
 (= q_days 400))
(assert
 (let (($x2474 (= (mod x_plus_period_896474_year 4) 0)))
 (let (($x2353 (= (mod x_plus_period_896474_year 100) 0)))
 (let (($x3446 (= (mod x_plus_period_896474_year 400) 0)))
 (let (($x4778 (ite $x3446 true (ite $x2353 false $x2474))))
 (let ((?x499 (ite (= x_plus_period_896474_month 10) 273 (ite (= x_plus_period_896474_month 11) 304 334))))
 (let (($x1349 (= x_plus_period_896474_month 9)))
 (let ((?x2536 (ite (= x_plus_period_896474_month 7) 181 (ite (= x_plus_period_896474_month 8) 212 (ite $x1349 243 ?x499)))))
 (let (($x1779 (= x_plus_period_896474_month 6)))
 (let (($x1865 (= x_plus_period_896474_month 4)))
 (let ((?x2472 (ite $x1865 90 (ite (= x_plus_period_896474_month 5) 120 (ite $x1779 151 ?x2536)))))
 (let (($x882 (= x_plus_period_896474_month 2)))
 (let ((?x5514 (ite (= x_plus_period_896474_month 1) 0 (ite $x882 31 (ite (= x_plus_period_896474_month 3) 59 ?x2472)))))
 (let ((?x6540 (+ ?x5514 (ite (and $x4778 (> x_plus_period_896474_month 2)) 1 0))))
 (let ((?x2313 (+ (* 365 (- x_plus_period_896474_year 1)) (div (- x_plus_period_896474_year 1) 4))))
 (let ((?x3757 (+ (- ?x2313 (div (- x_plus_period_896474_year 1) 100)) (div (- x_plus_period_896474_year 1) 400))))
 (let (($x1247 (= x_plus_period_896474_epoch (+ (+ ?x3757 ?x6540) (- x_plus_period_896474_day 1)))))
 (let (($x5269 (<= x_plus_period_896474_year 2400)))
 (let (($x2485 (>= x_plus_period_896474_year 1600)))
 (let ((?x1342 (ite (or $x1865 $x1779 $x1349 (= x_plus_period_896474_month 11)) 30 31)))
 (let (($x3834 (>= x_plus_period_896474_day 1)))
 (let (($x3516 (<= x_plus_period_896474_month 12)))
 (let (($x5293 (>= x_plus_period_896474_month 1)))
 (and $x5293 $x3516 $x3834 (<= x_plus_period_896474_day (ite $x882 (ite $x4778 29 28) ?x1342)) $x2485 $x5269 $x1247))))))))))))))))))))))))
(assert
 (= x_plus_period_896474_epoch (+ x_epoch p_days)))
(assert
 (let (($x3787 (= (mod x_plus_period_896474_plus_period_898416_year 4) 0)))
 (let (($x418 (= (mod x_plus_period_896474_plus_period_898416_year 100) 0)))
 (let (($x2058 (= (mod x_plus_period_896474_plus_period_898416_year 400) 0)))
 (let (($x160 (ite $x2058 true (ite $x418 false $x3787))))
 (let ((?x2896 (ite (and $x160 (> x_plus_period_896474_plus_period_898416_month 2)) 1 0)))
 (let ((?x1089 (ite (= x_plus_period_896474_plus_period_898416_month 10) 273 (ite (= x_plus_period_896474_plus_period_898416_month 11) 304 334))))
 (let (($x3253 (= x_plus_period_896474_plus_period_898416_month 9)))
 (let ((?x4800 (ite (= x_plus_period_896474_plus_period_898416_month 8) 212 (ite $x3253 243 ?x1089))))
 (let (($x2214 (= x_plus_period_896474_plus_period_898416_month 6)))
 (let ((?x5457 (ite $x2214 151 (ite (= x_plus_period_896474_plus_period_898416_month 7) 181 ?x4800))))
 (let (($x3450 (= x_plus_period_896474_plus_period_898416_month 4)))
 (let ((?x1253 (ite $x3450 90 (ite (= x_plus_period_896474_plus_period_898416_month 5) 120 ?x5457))))
 (let (($x2048 (= x_plus_period_896474_plus_period_898416_month 3)))
 (let (($x3092 (= x_plus_period_896474_plus_period_898416_month 2)))
 (let ((?x3701 (ite (= x_plus_period_896474_plus_period_898416_month 1) 0 (ite $x3092 31 (ite $x2048 59 ?x1253)))))
 (let ((?x2875 (+ (* 365 (- x_plus_period_896474_plus_period_898416_year 1)) (div (- x_plus_period_896474_plus_period_898416_year 1) 4))))
 (let ((?x3156 (- ?x2875 (div (- x_plus_period_896474_plus_period_898416_year 1) 100))))
 (let ((?x1747 (+ ?x3156 (div (- x_plus_period_896474_plus_period_898416_year 1) 400))))
 (let ((?x5427 (+ (+ ?x1747 (+ ?x3701 ?x2896)) (- x_plus_period_896474_plus_period_898416_day 1))))
 (let (($x2576 (<= x_plus_period_896474_plus_period_898416_year 2400)))
 (let (($x1160 (>= x_plus_period_896474_plus_period_898416_year 1600)))
 (let (($x1992 (= x_plus_period_896474_plus_period_898416_month 11)))
 (let ((?x3442 (ite (or $x3450 $x2214 $x3253 $x1992) 30 31)))
 (let (($x289 (<= x_plus_period_896474_plus_period_898416_day (ite $x3092 (ite $x160 29 28) ?x3442))))
 (let (($x1219 (>= x_plus_period_896474_plus_period_898416_day 1)))
 (let (($x3604 (<= x_plus_period_896474_plus_period_898416_month 12)))
 (let (($x2729 (>= x_plus_period_896474_plus_period_898416_month 1)))
 (and $x2729 $x3604 $x1219 $x289 $x1160 $x2576 (= x_plus_period_896474_plus_period_898416_epoch ?x5427))))))))))))))))))))))))))))))
(assert
 (= x_plus_period_896474_plus_period_898416_epoch (+ x_plus_period_896474_epoch q_days)))
(assert
 (let (($x2264 (= x_plus_period_896474_plus_period_898416_day 21)))
(let (($x2048 (= x_plus_period_896474_plus_period_898416_month 3)))
(let (($x2579 (= x_plus_period_896474_plus_period_898416_year 2023)))
(and $x2579 $x2048 $x2264)))))
(check-sat)
